
  22    4
  10   10   10   10

   0   0   0   0   0   5 2 4 5 6 7 
   8  10  10  10  10   2 12 3 
   2  10  10  10  10   4 17 10 9 8 
   3  10  10  10  10   4 17 10 9 8 
   7  10  10  10  10   3 17 10 8 
   1  10  10  10  10   2 21 8 
   9  10  10  10  10   3 21 13 11 
   4  10  10  10  10   3 20 15 13 
   1  10  10  10  10   3 19 15 14 
   1  10  10  10  10   3 20 19 16 
   6  10  10  10  10   3 20 19 16 
   1  10  10  10  10   2 21 13 
  10  10  10  10  10   2 19 18 
   7  10  10  10  10   2 20 18 
   4  10  10  10  10   1 16 
   3  10  10  10  10   1 18 
   3  10  10  10  10   1 21 
   7  10  10  10  10   1 22
   7  10  10  10  10   1 22
   5  10  10  10  10   1 22
   5  10  10  10  10   1 22
   0   0   0   0   0   0 
